p cnf 121 435
2 1 0
2 1 0
-1 -2 0
-3 4 -5 0
3 -4 -5 0
-3 -4 5 0
3 4 5 0
6 2 0
6 5 0
-2 -5 -6 0
8 4 0
8 -7 0
-4 7 -8 0
-6 -8 -9 0
6 8 -9 0
-6 8 9 0
6 -8 9 0
11 7 0
11 -10 0
-7 10 -11 0
11 8 -12 0
-11 -8 -12 0
11 -8 12 0
-11 8 12 0
-13 9 0
-13 -12 0
-9 12 13 0
10 15 -16 0
-10 -15 -16 0
10 -15 16 0
-10 15 16 0
-11 16 -17 0
11 -16 -17 0
-11 -16 17 0
11 16 17 0
-14 17 -18 0
14 -17 -18 0
-14 -17 18 0
14 17 18 0
19 -13 0
19 -18 0
13 18 -19 0
21 -20 0
21 -15 0
20 15 -21 0
-24 -20 0
-24 23 0
20 -23 24 0
-25 -22 0
-25 24 0
22 -24 25 0
26 -21 0
26 -25 0
21 25 -26 0
-29 1 0
-29 -28 0
-1 28 29 0
-30 -23 0
-30 -1 0
23 1 30 0
-31 -29 0
-31 -30 0
29 30 31 0
32 -27 0
32 31 0
27 -31 -32 0
34 -33 0
34 -8 0
33 8 -34 0
-35 -30 0
-35 -34 0
30 34 35 0
17 35 -36 0
-17 -35 -36 0
17 -35 36 0
-17 35 36 0
37 31 0
37 30 0
-31 -30 -37 0
-38 -37 0
-38 16 0
37 -16 38 0
39 -36 0
39 -38 0
36 38 -39 0
40 22 0
40 10 0
-22 -10 -40 0
41 -40 0
41 -11 0
40 11 -41 0
15 41 -42 0
-15 -41 -42 0
15 -41 42 0
-15 41 42 0
12 -37 -43 0
-12 37 -43 0
12 37 43 0
-12 -37 43 0
43 -34 -44 0
-43 34 -44 0
43 34 44 0
-43 -34 44 0
-45 -44 0
-45 21 0
44 -21 45 0
46 24 0
46 28 0
-24 -28 -46 0
-47 -25 0
-47 46 0
25 -46 47 0
45 -47 -48 0
-45 47 -48 0
45 47 48 0
-45 -47 48 0
-42 48 -49 0
42 -48 -49 0
-42 -48 49 0
42 48 49 0
50 -39 0
50 49 0
39 -49 -50 0
-51 41 0
-51 -30 0
-41 30 51 0
-52 16 0
-52 51 0
-16 -51 52 0
53 -50 0
53 52 0
50 -52 -53 0
32 -53 -54 0
-32 53 -54 0
32 53 54 0
-32 -53 54 0
-26 54 -55 0
26 -54 -55 0
-26 -54 55 0
26 54 55 0
-19 -55 -56 0
19 55 -56 0
-19 55 56 0
19 -55 56 0
-6 43 -57 0
6 -43 -57 0
-6 -43 57 0
6 43 57 0
15 27 -58 0
-15 -27 -58 0
15 -27 58 0
-15 27 58 0
59 12 0
59 58 0
-12 -58 -59 0
-60 57 0
-60 -59 0
-57 59 60 0
-58 23 -61 0
58 -23 -61 0
-58 -23 61 0
58 23 61 0
-62 -21 0
-62 16 0
21 -16 62 0
15 -6 -63 0
-15 6 -63 0
15 6 63 0
-15 -6 63 0
64 46 0
64 63 0
-46 -63 -64 0
65 38 0
65 -64 0
-38 64 -65 0
66 -6 0
66 -43 0
6 43 -66 0
14 -66 -67 0
-14 66 -67 0
14 66 67 0
-14 -66 67 0
-68 -5 0
-68 -63 0
5 63 68 0
-68 -14 -69 0
68 14 -69 0
-68 14 69 0
68 -14 69 0
-67 -69 -70 0
67 69 -70 0
-67 69 70 0
67 -69 70 0
-71 65 0
-71 70 0
-65 -70 71 0
-72 62 0
-72 -71 0
-62 71 72 0
73 61 0
73 72 0
-61 -72 -73 0
-74 -60 0
-74 73 0
60 -73 74 0
75 51 0
75 22 0
-51 -22 -75 0
-76 -75 0
-76 -35 0
75 35 76 0
77 -8 0
77 -14 0
8 14 -77 0
-78 -21 0
-78 77 0
21 -77 78 0
78 -10 -79 0
-78 10 -79 0
78 10 79 0
-78 -10 79 0
79 -64 -80 0
-79 64 -80 0
79 64 80 0
-79 -64 80 0
-44 -68 -81 0
44 68 -81 0
-44 68 81 0
44 -68 81 0
80 81 -82 0
-80 -81 -82 0
80 -81 82 0
-80 81 82 0
76 -82 -83 0
-76 82 -83 0
76 82 83 0
-76 -82 83 0
-15 -1 -84 0
15 1 -84 0
-15 1 84 0
15 -1 84 0
85 43 0
85 84 0
-43 -84 -85 0
-86 83 0
-86 -85 0
-83 85 86 0
87 -3 0
87 -17 0
3 17 -87 0
24 8 -88 0
-24 -8 -88 0
24 -8 88 0
-24 8 88 0
87 88 -89 0
-87 -88 -89 0
87 -88 89 0
-87 88 89 0
-27 -25 -90 0
27 25 -90 0
-27 25 90 0
27 -25 90 0
91 -25 0
91 33 0
25 -33 -91 0
92 -91 0
92 37 0
91 -37 -92 0
90 92 -93 0
-90 -92 -93 0
90 -92 93 0
-90 92 93 0
-94 -10 0
-94 -78 0
10 78 94 0
34 30 -95 0
-34 -30 -95 0
34 -30 95 0
-34 30 95 0
96 -9 0
96 95 0
9 -95 -96 0
97 28 0
97 -96 0
-28 96 -97 0
94 -97 -98 0
-94 97 -98 0
94 97 98 0
-94 -97 98 0
-99 -93 0
-99 -98 0
93 98 99 0
-95 68 -100 0
95 -68 -100 0
-95 -68 100 0
95 68 100 0
101 30 0
101 -4 0
-30 4 -101 0
102 101 0
102 12 0
-101 -12 -102 0
102 -63 -103 0
-102 63 -103 0
102 63 103 0
-102 -63 103 0
-104 -100 0
-104 103 0
100 -103 104 0
-105 78 0
-105 11 0
-78 -11 105 0
-104 105 -106 0
104 -105 -106 0
-104 -105 106 0
104 105 106 0
-99 106 -107 0
99 -106 -107 0
-99 -106 107 0
99 106 107 0
-108 89 0
-108 -107 0
-89 107 108 0
86 -108 -109 0
-86 108 -109 0
86 108 109 0
-86 -108 109 0
110 74 0
110 109 0
-74 -109 -110 0
111 -5 0
111 -25 0
5 25 -111 0
-112 9 0
-112 -21 0
-9 21 112 0
-113 -28 0
-113 33 0
28 -33 113 0
114 -112 0
114 -113 0
112 113 -114 0
115 111 0
115 -114 0
-111 114 -115 0
116 110 0
116 -115 0
-110 115 -116 0
-58 15 -118 0
58 -15 -118 0
-58 -15 118 0
58 15 118 0
-119 117 0
-119 118 0
-117 -118 119 0
120 -116 0
120 119 0
116 -119 -120 0
-56 -120 -121 0
56 120 -121 0
-56 120 121 0
56 -120 121 0
80 72 -108 0
18 -34 -13 0
-49 32 78 -110 0
114 1 -32 81 -120 0
-107 47 29 -38 0
-69 -18 -121 91 -4 -30 0
33 36 -39 0
38 23 73 -71 -17 67 0
66 -77 1 -20 69 48 0
2 -58 64 0
-85 1 -112 0
63 -33 110 0
-69 -39 -83 27 0
-98 -87 0
65 112 0
60 106 0
60 26 16 -116 0
8 4 -60 0
29 11 75 -66 120 -80 0
-50 -31 -41 -26 53 0
61 -108 0
-85 38 53 36 -45 64 0
-75 26 0
-114 28 0
-59 -113 10 0
86 -120 -65 0
-101 25 45 0
16 -5 72 3 -61 0
95 79 47 72 0
69 22 -48 -59 -118 31 0
-37 65 -3 7 73 0
-38 -101 -97 28 54 0
85 51 0
-90 -81 0
52 96 -117 0
-117 56 0
71 81 -120 -44 48 0
-5 96 -58 110 89 0
18 120 -22 0
-30 1 23 -39 0
45 68 -86 0
70 94 -43 13 19 0
30 27 -92 -16 68 0
116 82 9 -19 0
-75 -52 17 0
94 38 62 0
52 104 -63 93 115 -17 0
-80 -3 -14 10 -90 -54 0
91 108 77 100 112 0
-53 81 0
103 -67 101 83 0
-108 -34 -72 -68 0
78 -34 60 62 114 -113 0
-35 -67 70 -53 83 -116 0
12 -70 88 0
-64 2 -4 0
33 16 0
-47 76 -100 115 56 -31 0
-85 -118 12 0
-68 -110 -21 -77 23 114 0
-113 67 -24 0
5 -12 70 -64 69 97 0
-76 -56 -13 62 99 0
47 -32 -72 -107 22 0
-72 -81 -64 118 -47 0
-1 -39 -57 -96 30 0
-52 53 0
94 25 99 0
86 -109 63 0
-99 -103 -79 0
-4 -58 5 -98 0
101 -118 -26 -66 48 0
121 0
